peakDumbCharging = 18500; 
Machine = anon_enum(16); 
machineSpeed = [3700,3700,3700,3700,3700,3700,3700,3700,3700,3700,3700,3700,3700,3700,3700,3700]; 
machineLoad = [3700,3700,3700,3700,3700,3700,3700,3700,3700,3700,3700,3700,3700,3700,3700,3700]; 
Car = anon_enum(18); 
demandCar = [8240,22160,5600,7280,2120,5680,6040,33160,24000,7640,3920,11120,2240,3720,24800,5920,1200,33240]; 
arrivalCar = [80,74,74,73,69,69,68,68,66,64,63,63,62,58,55,45,45,28]; 
departureCar = [84,82,76,77,71,73,71,79,74,68,67,69,64,60,63,49,46,50]; 
